(set-info :smt-lib-version 2.6)
(set-logic LRA)
(set-info :source |
   Monniaux, David; Quantifier Elimination by Lazy Model Enumeration, CAV 2010
|)
(set-info :category "random")
; ./Mjollnir_examples/B4/formula_015.m
(set-info :status unsat)
(assert
 (exists ((|v11:0| Real) )(exists ((|v10:1| Real) )(exists ((|v9:2| Real) )(exists ((|v8:3| Real) )(forall ((|v7:4| Real) )(forall ((|v6:5| Real) )(forall ((|v5:6| Real) )(forall ((|v4:7| Real) )(exists ((|v3:8| Real) )(exists ((|v2:9| Real) )(exists ((|v1:10| Real) )(exists ((|v0:11| Real) )(let ((?x256 18))
(let ((?x32 (- 14)))
(let ((?x33 (* ?x32 |v7:4|)))
(let ((?x600 (+ (+ (* 14 |v8:3|) (* 10 |v0:11|)) (* 7 |v0:11|))))
(let ((?x51 (- 7)))
(let ((?x593 (+ (+ (* 0 |v3:8|) (* 0 |v11:0|)) (* (- 13) |v6:5|))))
(let (($x603 (or (<= (+ ?x593 (* (- 3) |v4:7|)) ?x51) (<= (+ ?x600 ?x33) ?x256))))
(let ((?x102 (- 18)))
(let ((?x24 (- 2)))
(let ((?x526 (* ?x24 |v0:11|)))
(let ((?x587 (+ (+ (+ (* (- 5) |v4:7|) (* 15 |v4:7|)) ?x526) (* 16 |v5:6|))))
(let ((?x61 19))
(let ((?x124 14))
(let ((?x579 (* ?x124 |v8:3|)))
(let ((?x581 (+ (+ (+ (* 9 |v0:11|) (* 9 |v7:4|)) ?x579) |v8:3|)))
(let ((?x148 17))
(let ((?x569 (* ?x148 |v5:6|)))
(let ((?x572 (+ (+ (+ ?x569 (* 20 |v1:10|)) (* 9 |v2:9|)) ?x569)))
(let ((?x69 (- 12)))
(let ((?x10 20))
(let ((?x11 (* ?x10 |v0:11|)))
(let ((?x79 9))
(let ((?x90 (* ?x79 |v9:2|)))
(let (($x568 (<= (+ (+ (+ (* ?x61 |v6:5|) (* 5 |v1:10|)) ?x90) ?x11) ?x69)))
(let ((?x194 (- 16)))
(let ((?x559 (+ (+ (* ?x24 |v11:0|) (* 0 |v1:10|)) (* 8 |v7:4|))))
(let ((?x58 (- 8)))
(let ((?x554 (+ (+ (+ (* ?x69 |v4:7|) (* ?x194 |v7:4|)) (* 8 |v10:1|)) (* (- 11) |v10:1|))))
(let (($x575 (or (and (<= ?x554 ?x58) (<= (+ ?x559 (* ?x61 |v4:7|)) ?x194)) (or $x568 (<= ?x572 ?x51)))))
(let ((?x74 2))
(let ((?x544 (+ (+ (+ (* (- 4) |v3:8|) (* ?x69 |v10:1|)) |v9:2|) (* 12 |v2:9|))))
(let ((?x291 (* ?x32 |v5:6|)))
(let ((?x536 (+ (+ (* 5 |v0:11|) (* 5 |v11:0|)) (* 16 |v11:0|))))
(let ((?x82 5))
(let ((?x499 (* ?x82 |v3:8|)))
(let ((?x325 (- 13)))
(let ((?x427 (* ?x325 |v2:9|)))
(let (($x532 (<= (+ (+ (+ (* ?x325 |v8:3|) (* 6 |v3:8|)) ?x427) ?x499) ?x74)))
(let ((?x14 (- 11)))
(let (($x528 (<= (+ (+ (+ (* ?x194 |v6:5|) (* ?x51 |v5:6|)) (* ?x148 |v10:1|)) ?x526) ?x14)))
(let ((?x516 (+ (+ (* 15 |v7:4|) (* (- 1) |v1:10|)) (* 3 |v10:1|))))
(let ((?x159 4))
(let ((?x508 (+ (+ (* 15 |v11:0|) (* 3 |v2:9|)) (* 7 |v6:5|))))
(let ((?x180 (- 10)))
(let ((?x373 (* ?x180 |v10:1|)))
(let ((?x496 (+ (+ (+ (* ?x194 |v5:6|) (* 8 |v9:2|)) (* ?x10 |v1:10|)) (* (- 19) |v1:10|))))
(let (($x503 (and (<= ?x496 ?x79) (<= (+ (+ (+ (* ?x58 |v10:1|) (* ?x58 |v6:5|)) ?x499) ?x373) ?x69))))
(let (($x520 (and $x503 (and (<= (+ ?x508 (* ?x325 |v7:4|)) ?x159) (<= (+ ?x516 |v5:6|) ?x32)))))
(let (($x548 (and $x520 (and (or $x528 $x532) (and (<= (+ ?x536 ?x291) ?x24) (<= ?x544 ?x74))))))
(let (($x606 (and $x548 (and $x575 (and (and (<= ?x581 ?x61) (<= ?x587 ?x102)) $x603)))))
(let ((?x262 6))
(let ((?x484 (* ?x262 |v3:8|)))
(let ((?x485 (+ (+ (+ (* (- 3) |v6:5|) (* ?x61 |v0:11|)) (* ?x180 |v7:4|)) ?x484)))
(let ((?x478 (+ (+ (+ (* ?x24 |v2:9|) (* ?x180 |v4:7|)) (* ?x74 |v9:2|)) (* ?x58 |v8:3|))))
(let ((?x469 (+ (+ (* (- 3) |v3:8|) (* (- 4) |v8:3|)) (* ?x124 |v10:1|))))
(let ((?x463 (+ (+ (+ (* 13 |v10:1|) (* ?x24 |v4:7|)) (* ?x58 |v6:5|)) (* ?x51 |v11:0|))))
(let (($x488 (and (and (<= ?x463 ?x262) (<= (+ ?x469 (* 12 |v4:7|)) ?x69)) (and (<= ?x478 ?x159) (<= ?x485 ?x69)))))
(let ((?x454 (* ?x24 |v11:0|)))
(let ((?x221 (- 19)))
(let ((?x354 (* ?x221 |v0:11|)))
(let (($x456 (<= (+ (+ (+ (* ?x74 |v0:11|) (* (- 17) |v4:7|)) ?x354) ?x454) ?x79)))
(let ((?x88 15))
(let ((?x449 (+ (+ (+ (* ?x262 |v10:1|) (* (- 6) |v6:5|)) (* ?x51 |v8:3|)) (* ?x32 |v8:3|))))
(let ((?x439 (+ (+ (* ?x256 |v7:4|) (* (- 20) |v0:11|)) (* (- 9) |v5:6|))))
(let ((?x433 (+ (+ (+ ?x427 (* (- 17) |v10:1|)) (* (- 3) |v2:9|)) (* ?x325 |v9:2|))))
(let (($x458 (and (or (<= ?x433 ?x88) (<= (+ ?x439 (* ?x124 |v7:4|)) ?x88)) (and (<= ?x449 ?x88) $x456))))
(let ((?x27 12))
(let ((?x420 (+ (+ (* 10 |v6:5|) (* (- 6) |v1:10|)) (* ?x79 |v3:8|))))
(let ((?x269 (- 20)))
(let ((?x270 (* ?x269 |v9:2|)))
(let (($x424 (and (<= (+ (+ (+ (* ?x24 |v8:3|) (* ?x262 |v1:10|)) ?x373) ?x270) ?x74) (<= (+ ?x420 (* 0 |v2:9|)) ?x27))))
(let ((?x407 (+ (+ (+ |v2:9| |v6:5|) (* (- 15) |v0:11|)) (* 8 |v3:8|))))
(let ((?x401 (+ (+ (+ (* ?x10 |v2:9|) (* 10 |v1:10|)) (* ?x51 |v3:8|)) (* ?x221 |v4:7|))))
(let ((?x98 (- 1)))
(let ((?x197 8))
(let ((?x348 (* ?x197 |v1:10|)))
(let ((?x393 (+ (+ (+ (* ?x51 |v1:10|) (* (- 5) |v9:2|)) ?x348) (* (- 3) |v7:4|))))
(let ((?x172 (- 9)))
(let (($x389 (<= (+ (+ (+ (* ?x221 |v6:5|) |v2:9|) (* ?x58 |v4:7|)) (* ?x10 |v1:10|)) ?x172)))
(let ((?x380 (+ (+ (+ (* ?x98 |v10:1|) (* ?x221 |v10:1|)) (* ?x14 |v5:6|)) (* ?x88 |v8:3|))))
(let (($x375 (<= (+ (+ (+ (* ?x269 |v10:1|) (* ?x69 |v6:5|)) (* ?x124 |v5:6|)) ?x373) ?x256)))
(let (($x426 (or (and (or $x375 (<= ?x380 ?x27)) (and $x389 (<= ?x393 ?x98))) (and (and (<= ?x401 ?x325) (<= ?x407 ?x24)) $x424))))
(let ((?x95 10))
(let ((?x96 (* ?x95 |v11:0|)))
(let ((?x41 (- 4)))
(let ((?x357 (+ (+ (+ (* ?x27 |v7:4|) (* (- 5) |v9:2|)) ?x354) (* ?x32 |v9:2|))))
(let (($x364 (and (<= ?x357 ?x41) (<= (+ (+ (+ (* ?x58 |v10:1|) |v2:9|) (* ?x262 |v7:4|)) ?x96) ?x102))))
(let ((?x349 (+ (+ (+ (* ?x102 |v8:3|) (* 16 |v2:9|)) (* ?x74 |v5:6|)) ?x348)))
(let ((?x343 (+ (+ (+ (* (- 17) |v4:7|) (* ?x69 |v5:6|)) |v4:7|) (* ?x159 |v3:8|))))
(let ((?x333 (* ?x82 |v11:0|)))
(let (($x335 (<= (+ (+ (+ (* ?x325 |v8:3|) (* ?x24 |v6:5|)) (* ?x98 |v8:3|)) ?x333) ?x197)))
(let ((?x156 (- 5)))
(let ((?x323 (+ (+ (* 16 |v2:9|) (* ?x10 |v5:6|)) (* 13 |v8:3|))))
(let ((?x132 (* ?x82 |v1:10|)))
(let ((?x316 (+ (+ (+ (* ?x88 |v1:10|) (* ?x262 |v7:4|)) (* 11 |v4:7|)) ?x132)))
(let ((?x309 (* ?x269 |v10:1|)))
(let ((?x308 (+ (+ (* ?x156 |v3:8|) (* 16 |v9:2|)) (* 0 |v0:11|))))
(let (($x337 (and (and (<= (+ ?x308 ?x309) ?x197) (<= ?x316 ?x197)) (and (<= (+ ?x323 (* ?x325 |v4:7|)) ?x156) $x335))))
(let ((?x299 (+ (+ (+ (* ?x51 |v8:3|) (* ?x69 |v2:9|)) (* ?x102 |v9:2|)) (* ?x269 |v7:4|))))
(let ((?x138 1))
(let (($x293 (<= (+ (+ (+ (* ?x51 |v6:5|) (* ?x74 |v4:7|)) (* ?x32 |v11:0|)) ?x291) ?x138)))
(let ((?x66 0))
(let ((?x283 (+ (+ (+ (* ?x159 |v1:10|) (* ?x180 |v6:5|)) (* ?x256 |v3:8|)) (* ?x61 |v3:8|))))
(let (($x285 (and (<= (+ (+ (+ ?x11 ?x270) (* ?x98 |v2:9|)) (* ?x82 |v0:11|)) ?x61) (<= ?x283 ?x66))))
(let ((?x37 (- 17)))
(let ((?x264 (+ (+ (+ (* ?x256 |v1:10|) (* ?x69 |v0:11|)) (* ?x102 |v7:4|)) (* ?x262 |v2:9|))))
(let ((?x253 (+ (+ (+ (* ?x14 |v5:6|) (* ?x66 |v4:7|)) (* ?x102 |v7:4|)) (* 13 |v0:11|))))
(let ((?x244 (+ (+ (+ |v6:5| (* ?x180 |v8:3|)) (* ?x88 |v4:7|)) (* (- 3) |v10:1|))))
(let ((?x234 (+ (+ (+ (* ?x10 |v2:9|) (* ?x51 |v3:8|)) (* ?x10 |v2:9|)) (* ?x10 |v9:2|))))
(let (($x267 (and (and (<= ?x234 ?x180) (<= ?x244 ?x82)) (and (<= ?x253 ?x148) (<= ?x264 ?x37)))))
(let (($x367 (and (and $x267 (and $x285 (and $x293 (<= ?x299 ?x82)))) (and $x337 (and (or (<= ?x343 ?x172) (<= ?x349 ?x194)) $x364)))))
(let ((?x19 13))
(let ((?x223 (+ (+ (+ (* ?x98 |v10:1|) (* ?x69 |v3:8|)) (* ?x124 |v3:8|)) (* ?x221 |v5:6|))))
(let ((?x213 (+ (+ (+ (* ?x41 |v10:1|) (* ?x37 |v1:10|)) (* ?x82 |v9:2|)) (* ?x156 |v11:0|))))
(let ((?x204 (* ?x24 |v6:5|)))
(let (($x206 (<= (+ (+ (+ (* ?x102 |v1:10|) (* ?x41 |v6:5|)) (* ?x19 |v10:1|)) ?x204) ?x148)))
(let ((?x195 (* ?x194 |v7:4|)))
(let ((?x196 (+ (+ (+ (* ?x79 |v2:9|) (* (- 15) |v1:10|)) (* ?x69 |v2:9|)) ?x195)))
(let ((?x44 7))
(let ((?x184 (+ (+ (+ (* ?x27 |v3:8|) (* 3 |v1:10|)) (* ?x180 |v7:4|)) (* ?x66 |v7:4|))))
(let ((?x174 (+ (+ (+ (* ?x19 |v2:9|) (* ?x44 |v11:0|)) (* ?x10 |v8:3|)) (* ?x172 |v3:8|))))
(let ((?x165 (+ (+ (+ (* ?x156 |v6:5|) (* ?x159 |v9:2|)) (* ?x74 |v10:1|)) (* ?x79 |v8:3|))))
(let ((?x153 3))
(let ((?x152 (+ (+ (+ (* ?x41 |v10:1|) (* ?x95 |v3:8|)) (* ?x148 |v2:9|)) (* (- 6) |v2:9|))))
(let (($x187 (and (and (<= ?x152 ?x153) (<= ?x165 ?x102)) (and (<= ?x174 ?x138) (<= ?x184 ?x44)))))
(let (($x227 (and $x187 (and (and (<= ?x196 ?x197) $x206) (and (<= ?x213 ?x58) (<= ?x223 ?x19))))))
(let ((?x136 (* ?x44 |v11:0|)))
(let (($x139 (<= (+ (+ (+ (* 16 |v6:5|) ?x132) (* ?x37 |v3:8|)) ?x136) ?x138)))
(let ((?x118 (- 15)))
(let ((?x121 (* ?x118 |v1:10|)))
(let (($x127 (<= (+ (+ (+ (* ?x88 |v6:5|) (* ?x118 |v2:9|)) ?x121) (* ?x124 |v6:5|)) ?x44)))
(let ((?x113 (- 6)))
(let ((?x112 (+ (+ (+ (* ?x102 |v8:3|) (* ?x32 |v3:8|)) (* ?x27 |v7:4|)) (* 11 |v2:9|))))
(let (($x115 (and (<= (+ (+ (+ (* ?x88 |v1:10|) ?x90) (* ?x82 |v2:9|)) ?x96) ?x98) (<= ?x112 ?x113))))
(let ((?x81 (+ (+ (+ (* ?x66 |v11:0|) (* ?x69 |v8:3|)) (* ?x74 |v9:2|)) (* ?x79 |v10:1|))))
(let ((?x59 (* ?x58 |v6:5|)))
(let (($x62 (<= (+ (+ (+ (* ?x24 |v5:6|) (* ?x51 |v1:10|)) (* ?x27 |v6:5|)) ?x59) ?x61)))
(let (($x45 (<= (+ (+ (+ ?x33 (* ?x24 |v2:9|)) (* ?x37 |v8:3|)) (* ?x41 |v2:9|)) ?x44)))
(let (($x28 (<= (+ (+ (+ ?x11 (* ?x14 |v8:3|)) (* ?x19 |v2:9|)) (* ?x24 |v1:10|)) ?x27)))
(let (($x142 (and (and (and $x28 $x45) (and $x62 (<= ?x81 ?x82))) (and $x115 (and $x127 $x139)))))
(or (and (and $x142 $x227) $x367) (and (and $x426 (and $x458 $x488)) $x606)))))))))))))))))))))))))))))))))))))))))))))))))))))))))))))))))))))))))))))))))))))))))))))))))))))))))))))))))))))))))))))))))))))))))))))))
)
)
)
)
)
)
)
)
)
)
)
)
(check-sat)
(exit)

